252 254 253 255 256 257 300 301 302 508 507 506 307 303 304 306 305 318 317 319 320 321 297 298 299 258 259 260 261 262 263 264 265 266 267 296 295 294 293 270 269 268 271 272 273 274 275 292 291 290 289 288 276 277 278 279 282 281 280 287 286 285 284 283 334 335 336 337 338 339 333 332 331 330 340 341 344 343 342 366 329 328 327 326 325 324 323 322 373 372 371 396 395 394 393 391 392 390 389 388 387 386 382 383 384 410 411 412 356 355 353 354 357 358 359 360 401 402 403 400 399 406 405 404 409 385 408 407 397 398 370 369 368 367 365 364 345 346 362 363 361 347 348 349 350 351 352 413 414 415 416 417 418 419 420 421 422 423 424 425 426 427 428 429 431 430 432 433 434 435 436 437 438 454 455 456 457 458 459 460 461 462 463 464 465 496 497 498 501 500 499 452 453 451 450 448 447 446 442 449 441 440 439 443 444 445 381 380 379 378 377 376 375 374 315 314 316 313 312 311 310 309 308 505 504 503 502 517 516 515 514 522 521 520 519 518 495 494 472 471 470 469 468 467 466 571 572 573 0 1 2 3 4 5 6 7 8 9 10 11 14 15 16 17 18 19 20 13 12 23 22 31 32 30 29 28 27 26 25 24 21 568 569 570 474 473 475 476 477 478 479 480 481 482 483 485 486 487 534 535 484 536 537 539 538 540 188 187 178 177 176 544 543 541 542 107 108 109 110 111 114 115 116 117 106 105 104 103 547 546 545 548 549 564 566 567 565 563 562 561 560 559 558 557 34 33 35 36 37 38 40 41 39 42 43 44 45 46 47 48 49 55 56 53 54 52 51 84 50 91 555 556 554 553 552 550 551 101 102 100 99 98 97 96 95 94 89 93 92 90 85 86 82 83 57 58 81 59 60 61 63 62 79 80 78 87 88 77 76 64 75 74 73 119 118 120 121 122 123 71 72 65 66 67 68 70 69 124 125 126 127 128 129 130 137 138 139 140 136 135 134 133 132 131 113 112 161 160 158 145 144 143 142 141 151 150 149 152 148 147 146 153 157 159 156 155 154 165 164 166 167 163 162 168 170 172 173 174 175 171 169 180 181 179 182 186 185 183 184 193 194 195 196 197 198 199 200 201 202 204 203 208 207 206 205 209 210 211 212 213 214 215 216 217 223 224 222 221 220 218 219 192 191 190 226 225 189 227 228 229 230 231 533 488 489 490 491 492 493 524 525 523 526 527 512 513 509 510 511 528 529 530 531 532 233 232 234 235 236 237 240 239 238 246 247 245 244 243 242 241 248 249 250 251